Argumentos: 
./solver.release -i 27 -t 86400 -a 7 -h 86400 -w Testes/Marcos-i27 -m modelo.mod -o modelo.mod 
Seed: 1622676164
hidden-TXT/Sc-n110w4.txt
hidden-TXT/H0-n110w4-2.txt
hidden-TXT/WD-n110w4-0.txt hidden-TXT/WD-n110w4-2.txt hidden-TXT/WD-n110w4-7.txt hidden-TXT/WD-n110w4-0.txt 
Reading model section from modelo.mod...
285 lines were read
Reading data section from Testes/Marcos-i27/27.dat...
19773 lines were read
Generating obj...
Generating H1turnoDia...
Generating H2coberturaMinima...
Generating H3AsucessaoTurnos...
Generating H3BsucessaoTurnos...
Generating H4qualificacao...
Generating S1coberturaOtima...
Generating S2aux1...
Generating S2aux2...
Generating S2aux3...
Generating S2aux7...
Generating S2a...
Generating S2S3aux4...
Generating S2S3aux5...
Generating S2S3aux6...
Generating S2S3aux8...
Generating S2c...
Generating S2chist...
Generating S2d...
Generating S2dHist...
Generating S2b...
Generating S2bHist...
Generating auxS5...
Generating S6a...
Generating S6b...
Generating auxS7...
Generating S7...
Model has been successfully generated
Writing problem data to `Testes/Marcos-i27/27.lp'...
9500924 lines were written
CPX0000  Presolve has eliminated 255844 rows and 289857 columns...
CPX0000  Presolve has improved bounds 55599 times...
CPX0000  Tried aggregator 2 times.
CPX0000  Aggregator has done 27761 substitutions...
CPX0000  MIP Presolve eliminated 265292 rows and 290127 columns.
CPX0000  MIP Presolve modified 6128 coefficients.
CPX0000  Aggregator did 27761 substitutions.
CPX0000  Reduced MIP has 3181124 rows, 300727 columns, and 9940161 nonzeros.
CPX0000  Reduced MIP has 299994 binaries, 733 generals, 0 SOSs, and 0 indicators.
CPX0000  Presolve time = 45.59 sec. (29682.63 ticks)
CPX0000  Probing time = 0.71 sec. (140.78 ticks)
CPX0000  Tried aggregator 1 time.
CPX0000  Presolve has eliminated 63 rows and 63 columns...
CPX0000  Presolve has improved bounds 27 times...
CPX0000  MIP Presolve eliminated 63 rows and 63 columns.
CPX0000  MIP Presolve modified 466 coefficients.
CPX0000  Reduced MIP has 3181061 rows, 300664 columns, and 9939770 nonzeros.
CPX0000  Reduced MIP has 299994 binaries, 670 generals, 0 SOSs, and 0 indicators.
CPX0000  Presolve time = 30.26 sec. (18483.43 ticks)
CPX0000  Probing time = 0.82 sec. (141.19 ticks)
CPX0000  Clique table members: 2666514.
CPX0000  MIP emphasis: balance optimality and feasibility.
CPX0000  MIP search method: dynamic search.
CPX0000  Parallel mode: none, using 1 thread.
CPX0000  Root relaxation solution time = 86273.46 sec. (15330274.72 ticks)
CPX0000
CPX0000          Nodes                                         Cuts/
CPX0000     Node  Left     Objective  IInf  Best Integer    Best Bound    ItCnt     Gap
CPX0000
CPX0000        0     0  -1.00000e+37     0                     -0.0000  6736720
CPX0000
CPX0000  Root node processing (before b&c):
CPX0000    Real time             = 86404.75 sec. (15406562.90 ticks)
CPX0000  Sequential b&c:
CPX0000    Real time             =    0.00 sec. (0.00 ticks)
CPX0000                            ------------
CPX0000  Total (root+branch&cut) = 86404.75 sec. (15406562.90 ticks)
H2 understaffing: 902
H3 shiftTypeSuccessions: 19
S1 optimalCoverage: 630
S2a consecutiveShift: 38535 = (21,2548 )
S2b consecutiveWorkingDays: 77160 = ( 0,2572 )
S3 consecutiveDaysOff: 630 = ( 21,0 )
S4 preferences: 1690
S5 completeWeekend: 0
S6 totalAssignments: 32600
S7 totalWorkingWeekeends: 8280
 

Cost Solution: 1080525

File "Solucao/n110w4-2-0-2-7-0_w0.txt", unknown skill: HN_0 for nurse HN_0 on day Monday for shift type Early

     Syntax:
     java -jar validator.jar --sce scenario --his history --weeks week_1...week_n --sols sol_1...sol_n [--penaltyonly] [--out outFile] [--verbose]

          scenario           the file containing the scenario
          history            the file containing the initial history
          week_1...week_n    the files containing the week data
          sol_1...sol_n      the files containing the solutions for the weeks
          --penaltyonly      option to print only the penalty value
          --out outfile      option: print output to outfile
          --verbose          option: prints a detailed report of violations per nurse
